--------------------------------------------------
s SATISFIABLE
benchmarks_SAT/INST_25x25/0/inst25x25_0_0.cnf : 335 ms.
--------------------------------------------------
s SATISFIABLE
benchmarks_SAT/INST_25x25/0/inst25x25_0_10.cnf : 354 ms.
--------------------------------------------------
s SATISFIABLE
benchmarks_SAT/INST_25x25/0/inst25x25_0_11.cnf : 353 ms.
--------------------------------------------------
s SATISFIABLE
benchmarks_SAT/INST_25x25/0/inst25x25_0_12.cnf : 357 ms.
--------------------------------------------------
s SATISFIABLE
benchmarks_SAT/INST_25x25/0/inst25x25_0_13.cnf : 358 ms.
--------------------------------------------------
s SATISFIABLE
benchmarks_SAT/INST_25x25/0/inst25x25_0_14.cnf : 352 ms.
--------------------------------------------------
s SATISFIABLE
benchmarks_SAT/INST_25x25/0/inst25x25_0_15.cnf : 350 ms.
--------------------------------------------------
s SATISFIABLE
benchmarks_SAT/INST_25x25/0/inst25x25_0_16.cnf : 351 ms.
--------------------------------------------------
s SATISFIABLE
benchmarks_SAT/INST_25x25/0/inst25x25_0_17.cnf : 343 ms.
--------------------------------------------------
s SATISFIABLE
benchmarks_SAT/INST_25x25/0/inst25x25_0_18.cnf : 343 ms.
--------------------------------------------------
s SATISFIABLE
benchmarks_SAT/INST_25x25/0/inst25x25_0_19.cnf : 338 ms.
--------------------------------------------------
s SATISFIABLE
benchmarks_SAT/INST_25x25/0/inst25x25_0_1.cnf : 328 ms.
--------------------------------------------------
s SATISFIABLE
benchmarks_SAT/INST_25x25/0/inst25x25_0_20.cnf : 333 ms.
--------------------------------------------------
s SATISFIABLE
benchmarks_SAT/INST_25x25/0/inst25x25_0_21.cnf : 326 ms.
--------------------------------------------------
s SATISFIABLE
benchmarks_SAT/INST_25x25/0/inst25x25_0_22.cnf : 335 ms.
--------------------------------------------------
s SATISFIABLE
benchmarks_SAT/INST_25x25/0/inst25x25_0_23.cnf : 325 ms.
--------------------------------------------------
s SATISFIABLE
benchmarks_SAT/INST_25x25/0/inst25x25_0_24.cnf : 330 ms.
--------------------------------------------------
s SATISFIABLE
benchmarks_SAT/INST_25x25/0/inst25x25_0_25.cnf : 326 ms.
--------------------------------------------------
s SATISFIABLE
benchmarks_SAT/INST_25x25/0/inst25x25_0_26.cnf : 321 ms.
--------------------------------------------------
s SATISFIABLE
benchmarks_SAT/INST_25x25/0/inst25x25_0_27.cnf : 335 ms.
--------------------------------------------------
s SATISFIABLE
benchmarks_SAT/INST_25x25/0/inst25x25_0_28.cnf : 337 ms.
--------------------------------------------------
s SATISFIABLE
benchmarks_SAT/INST_25x25/0/inst25x25_0_29.cnf : 330 ms.
--------------------------------------------------
s SATISFIABLE
benchmarks_SAT/INST_25x25/0/inst25x25_0_2.cnf : 336 ms.
--------------------------------------------------
s SATISFIABLE
benchmarks_SAT/INST_25x25/0/inst25x25_0_30.cnf : 333 ms.
--------------------------------------------------
s SATISFIABLE
benchmarks_SAT/INST_25x25/0/inst25x25_0_31.cnf : 329 ms.
--------------------------------------------------
s SATISFIABLE
benchmarks_SAT/INST_25x25/0/inst25x25_0_32.cnf : 335 ms.
--------------------------------------------------
s SATISFIABLE
benchmarks_SAT/INST_25x25/0/inst25x25_0_33.cnf : 326 ms.
--------------------------------------------------
s SATISFIABLE
benchmarks_SAT/INST_25x25/0/inst25x25_0_34.cnf : 338 ms.
--------------------------------------------------
s SATISFIABLE
benchmarks_SAT/INST_25x25/0/inst25x25_0_35.cnf : 328 ms.
--------------------------------------------------
s SATISFIABLE
benchmarks_SAT/INST_25x25/0/inst25x25_0_36.cnf : 332 ms.
--------------------------------------------------
s SATISFIABLE
benchmarks_SAT/INST_25x25/0/inst25x25_0_37.cnf : 328 ms.
--------------------------------------------------
s SATISFIABLE
benchmarks_SAT/INST_25x25/0/inst25x25_0_38.cnf : 329 ms.
--------------------------------------------------
s SATISFIABLE
benchmarks_SAT/INST_25x25/0/inst25x25_0_39.cnf : 337 ms.
--------------------------------------------------
s SATISFIABLE
benchmarks_SAT/INST_25x25/0/inst25x25_0_3.cnf : 331 ms.
--------------------------------------------------
s SATISFIABLE
benchmarks_SAT/INST_25x25/0/inst25x25_0_40.cnf : 332 ms.
--------------------------------------------------
s SATISFIABLE
benchmarks_SAT/INST_25x25/0/inst25x25_0_41.cnf : 330 ms.
--------------------------------------------------
s SATISFIABLE
benchmarks_SAT/INST_25x25/0/inst25x25_0_42.cnf : 335 ms.
--------------------------------------------------
s SATISFIABLE
benchmarks_SAT/INST_25x25/0/inst25x25_0_43.cnf : 337 ms.
--------------------------------------------------
s SATISFIABLE
benchmarks_SAT/INST_25x25/0/inst25x25_0_44.cnf : 332 ms.
--------------------------------------------------
s SATISFIABLE
benchmarks_SAT/INST_25x25/0/inst25x25_0_45.cnf : 332 ms.
--------------------------------------------------
s SATISFIABLE
benchmarks_SAT/INST_25x25/0/inst25x25_0_46.cnf : 328 ms.
--------------------------------------------------
s SATISFIABLE
benchmarks_SAT/INST_25x25/0/inst25x25_0_47.cnf : 336 ms.
--------------------------------------------------
s SATISFIABLE
benchmarks_SAT/INST_25x25/0/inst25x25_0_48.cnf : 326 ms.
--------------------------------------------------
s SATISFIABLE
benchmarks_SAT/INST_25x25/0/inst25x25_0_49.cnf : 328 ms.
--------------------------------------------------
s SATISFIABLE
benchmarks_SAT/INST_25x25/0/inst25x25_0_4.cnf : 323 ms.
--------------------------------------------------
s SATISFIABLE
benchmarks_SAT/INST_25x25/0/inst25x25_0_50.cnf : 317 ms.
--------------------------------------------------
s SATISFIABLE
benchmarks_SAT/INST_25x25/0/inst25x25_0_51.cnf : 327 ms.
--------------------------------------------------
s SATISFIABLE
benchmarks_SAT/INST_25x25/0/inst25x25_0_52.cnf : 329 ms.
--------------------------------------------------
s SATISFIABLE
benchmarks_SAT/INST_25x25/0/inst25x25_0_53.cnf : 317 ms.
--------------------------------------------------
s SATISFIABLE
benchmarks_SAT/INST_25x25/0/inst25x25_0_54.cnf : 324 ms.
--------------------------------------------------
s SATISFIABLE
benchmarks_SAT/INST_25x25/0/inst25x25_0_55.cnf : 319 ms.
--------------------------------------------------
s SATISFIABLE
benchmarks_SAT/INST_25x25/0/inst25x25_0_56.cnf : 327 ms.
--------------------------------------------------
s SATISFIABLE
benchmarks_SAT/INST_25x25/0/inst25x25_0_57.cnf : 325 ms.
--------------------------------------------------
s SATISFIABLE
benchmarks_SAT/INST_25x25/0/inst25x25_0_58.cnf : 324 ms.
--------------------------------------------------
s SATISFIABLE
benchmarks_SAT/INST_25x25/0/inst25x25_0_59.cnf : 324 ms.
--------------------------------------------------
s SATISFIABLE
benchmarks_SAT/INST_25x25/0/inst25x25_0_5.cnf : 325 ms.
--------------------------------------------------
s SATISFIABLE
benchmarks_SAT/INST_25x25/0/inst25x25_0_60.cnf : 325 ms.
--------------------------------------------------
s SATISFIABLE
benchmarks_SAT/INST_25x25/0/inst25x25_0_61.cnf : 325 ms.
--------------------------------------------------
s SATISFIABLE
benchmarks_SAT/INST_25x25/0/inst25x25_0_62.cnf : 329 ms.
--------------------------------------------------
s SATISFIABLE
benchmarks_SAT/INST_25x25/0/inst25x25_0_63.cnf : 324 ms.
--------------------------------------------------
s SATISFIABLE
benchmarks_SAT/INST_25x25/0/inst25x25_0_64.cnf : 324 ms.
--------------------------------------------------
s SATISFIABLE
benchmarks_SAT/INST_25x25/0/inst25x25_0_65.cnf : 322 ms.
--------------------------------------------------
s SATISFIABLE
benchmarks_SAT/INST_25x25/0/inst25x25_0_66.cnf : 325 ms.
--------------------------------------------------
s SATISFIABLE
benchmarks_SAT/INST_25x25/0/inst25x25_0_67.cnf : 328 ms.
--------------------------------------------------
s SATISFIABLE
benchmarks_SAT/INST_25x25/0/inst25x25_0_68.cnf : 329 ms.
--------------------------------------------------
s SATISFIABLE
benchmarks_SAT/INST_25x25/0/inst25x25_0_69.cnf : 325 ms.
--------------------------------------------------
s SATISFIABLE
benchmarks_SAT/INST_25x25/0/inst25x25_0_6.cnf : 329 ms.
--------------------------------------------------
s SATISFIABLE
benchmarks_SAT/INST_25x25/0/inst25x25_0_70.cnf : 317 ms.
--------------------------------------------------
s SATISFIABLE
benchmarks_SAT/INST_25x25/0/inst25x25_0_71.cnf : 329 ms.
--------------------------------------------------
s SATISFIABLE
benchmarks_SAT/INST_25x25/0/inst25x25_0_72.cnf : 321 ms.
--------------------------------------------------
s SATISFIABLE
benchmarks_SAT/INST_25x25/0/inst25x25_0_73.cnf : 319 ms.
--------------------------------------------------
s SATISFIABLE
benchmarks_SAT/INST_25x25/0/inst25x25_0_74.cnf : 317 ms.
--------------------------------------------------
s SATISFIABLE
benchmarks_SAT/INST_25x25/0/inst25x25_0_75.cnf : 317 ms.
--------------------------------------------------
s SATISFIABLE
benchmarks_SAT/INST_25x25/0/inst25x25_0_76.cnf : 319 ms.
--------------------------------------------------
s SATISFIABLE
benchmarks_SAT/INST_25x25/0/inst25x25_0_77.cnf : 320 ms.
--------------------------------------------------
s SATISFIABLE
benchmarks_SAT/INST_25x25/0/inst25x25_0_78.cnf : 324 ms.
--------------------------------------------------
s SATISFIABLE
benchmarks_SAT/INST_25x25/0/inst25x25_0_79.cnf : 321 ms.
--------------------------------------------------
s SATISFIABLE
benchmarks_SAT/INST_25x25/0/inst25x25_0_7.cnf : 320 ms.
--------------------------------------------------
s SATISFIABLE
benchmarks_SAT/INST_25x25/0/inst25x25_0_80.cnf : 328 ms.
--------------------------------------------------
s SATISFIABLE
benchmarks_SAT/INST_25x25/0/inst25x25_0_81.cnf : 324 ms.
--------------------------------------------------
s SATISFIABLE
benchmarks_SAT/INST_25x25/0/inst25x25_0_82.cnf : 315 ms.
--------------------------------------------------
s SATISFIABLE
benchmarks_SAT/INST_25x25/0/inst25x25_0_83.cnf : 325 ms.
--------------------------------------------------
s SATISFIABLE
benchmarks_SAT/INST_25x25/0/inst25x25_0_84.cnf : 332 ms.
--------------------------------------------------
s SATISFIABLE
benchmarks_SAT/INST_25x25/0/inst25x25_0_85.cnf : 327 ms.
--------------------------------------------------
s SATISFIABLE
benchmarks_SAT/INST_25x25/0/inst25x25_0_86.cnf : 321 ms.
--------------------------------------------------
s SATISFIABLE
benchmarks_SAT/INST_25x25/0/inst25x25_0_87.cnf : 328 ms.
--------------------------------------------------
s SATISFIABLE
benchmarks_SAT/INST_25x25/0/inst25x25_0_88.cnf : 326 ms.
--------------------------------------------------
s SATISFIABLE
benchmarks_SAT/INST_25x25/0/inst25x25_0_89.cnf : 322 ms.
--------------------------------------------------
s SATISFIABLE
benchmarks_SAT/INST_25x25/0/inst25x25_0_8.cnf : 316 ms.
--------------------------------------------------
s SATISFIABLE
benchmarks_SAT/INST_25x25/0/inst25x25_0_90.cnf : 325 ms.
--------------------------------------------------
s SATISFIABLE
benchmarks_SAT/INST_25x25/0/inst25x25_0_91.cnf : 329 ms.
--------------------------------------------------
s SATISFIABLE
benchmarks_SAT/INST_25x25/0/inst25x25_0_92.cnf : 329 ms.
--------------------------------------------------
s SATISFIABLE
benchmarks_SAT/INST_25x25/0/inst25x25_0_93.cnf : 324 ms.
--------------------------------------------------
s SATISFIABLE
benchmarks_SAT/INST_25x25/0/inst25x25_0_94.cnf : 320 ms.
--------------------------------------------------
s SATISFIABLE
benchmarks_SAT/INST_25x25/0/inst25x25_0_95.cnf : 318 ms.
--------------------------------------------------
s SATISFIABLE
benchmarks_SAT/INST_25x25/0/inst25x25_0_96.cnf : 332 ms.
--------------------------------------------------
s SATISFIABLE
benchmarks_SAT/INST_25x25/0/inst25x25_0_97.cnf : 332 ms.
--------------------------------------------------
s SATISFIABLE
benchmarks_SAT/INST_25x25/0/inst25x25_0_98.cnf : 325 ms.
--------------------------------------------------
s SATISFIABLE
benchmarks_SAT/INST_25x25/0/inst25x25_0_99.cnf : 320 ms.
--------------------------------------------------
s SATISFIABLE
benchmarks_SAT/INST_25x25/0/inst25x25_0_9.cnf : 317 ms.
